NAME: tsp40_28
COMMENT: 40-tsp problem (Padberg/Rinaldi)
TYPE: TSP
DIMENSION: 40
EDGE_WEIGHT_TYPE : EUC_2D
NODE_COORD_SECTION
1 16 30
2 5 9
3 1 7
4 26 12
5 7 1
6 22 18
7 13 27
8 37 37
9 31 39
10 35 32
11 26 6
12 35 2
13 35 7
14 6 36
15 32 10
16 6 34
17 36 7
18 32 29
19 22 25
20 11 30
21 26 25
22 13 13
23 23 13
24 15 32
25 1 20
26 17 1
27 33 15
28 26 5
29 25 1
30 37 28
31 17 12
32 4 29
33 35 19
34 6 25
35 5 24
36 22 21
37 15 4
38 38 31
39 29 10
40 2 28
